p cnf 74 281
3 1 0
3 2 0
-1 -2 -3 0
5 -2 -6 0
-5 2 -6 0
5 2 6 0
-5 -2 6 0
4 6 -7 0
-4 -6 -7 0
4 -6 7 0
-4 6 7 0
-8 -1 0
-8 -7 0
1 7 8 0
-3 -8 -9 0
3 8 -9 0
-3 8 9 0
3 -8 9 0
-12 -10 0
-12 11 0
10 -11 12 0
-12 13 -14 0
12 -13 -14 0
-12 -13 14 0
12 13 14 0
-15 -7 0
-15 -4 0
7 4 15 0
-17 -16 0
-17 -4 0
16 4 17 0
15 -17 -18 0
-15 17 -18 0
15 17 18 0
-15 -17 18 0
19 14 0
19 18 0
-14 -18 -19 0
-20 12 0
-20 -5 0
-12 5 20 0
-21 20 0
-21 -11 0
-20 11 21 0
22 -2 0
22 -8 0
2 8 -22 0
-23 -10 0
-23 2 0
10 -2 23 0
24 -23 0
24 2 0
23 -2 -24 0
25 24 0
25 -2 0
-24 2 -25 0
22 25 -26 0
-22 -25 -26 0
22 -25 26 0
-22 25 26 0
-21 26 -27 0
21 -26 -27 0
-21 -26 27 0
21 26 27 0
28 19 0
28 27 0
-19 -27 -28 0
24 -29 0
-24 -29 0
30 -29 0
30 -5 0
29 5 -30 0
-17 -25 -31 0
17 25 -31 0
-17 25 31 0
17 -25 31 0
-32 -30 0
-32 31 0
30 -31 32 0
-4 16 -33 0
4 -16 -33 0
-4 -16 33 0
4 16 33 0
-34 15 0
-34 1 0
-15 -1 34 0
-33 -34 -35 0
33 34 -35 0
-33 34 35 0
33 -34 35 0
37 -36 0
37 -33 0
36 33 -37 0
-38 -35 0
-38 37 0
35 -37 38 0
39 23 0
39 -16 0
-23 16 -39 0
12 -39 -40 0
-12 39 -40 0
12 39 40 0
-12 -39 40 0
-33 40 -41 0
33 -40 -41 0
-33 -40 41 0
33 40 41 0
-36 34 -42 0
36 -34 -42 0
-36 -34 42 0
36 34 42 0
-41 -42 -43 0
41 42 -43 0
-41 42 43 0
41 -42 43 0
38 -43 -44 0
-38 43 -44 0
38 43 44 0
-38 -43 44 0
7 -5 -45 0
-7 5 -45 0
7 5 45 0
-7 -5 45 0
-45 -15 -46 0
45 15 -46 0
-45 15 46 0
45 -15 46 0
-47 -44 0
-47 46 0
44 -46 47 0
-32 -47 -48 0
32 47 -48 0
-32 47 48 0
32 -47 48 0
49 28 0
49 -48 0
-28 48 -49 0
-50 -5 0
-50 16 0
5 -16 50 0
-51 -23 0
-51 31 0
23 -31 51 0
-52 -50 0
-52 -51 0
50 51 52 0
53 -2 0
53 -15 0
2 15 -53 0
-54 6 0
-54 3 0
-6 -3 54 0
55 -53 0
55 -54 0
53 54 -55 0
-33 18 -56 0
33 -18 -56 0
-33 -18 56 0
33 18 56 0
57 -16 0
57 10 0
16 -10 -57 0
58 56 0
58 57 0
-56 -57 -58 0
59 55 0
59 -58 0
-55 58 -59 0
60 -52 0
60 -59 0
52 59 -60 0
-61 -49 0
-61 -60 0
49 60 61 0
-62 -5 0
-62 15 0
5 -15 62 0
-63 14 0
-63 11 0
-14 -11 63 0
-64 14 0
-64 -63 0
-14 63 64 0
62 64 -65 0
-62 -64 -65 0
62 -64 65 0
-62 64 65 0
14 -63 -66 0
-14 63 -66 0
14 63 66 0
-14 -63 66 0
68 -67 0
68 30 0
67 -30 -68 0
66 68 -69 0
-66 -68 -69 0
66 -68 69 0
-66 68 69 0
-70 65 0
-70 -69 0
-65 69 70 0
61 -70 -71 0
-61 70 -71 0
61 70 71 0
-61 -70 71 0
72 9 0
72 -71 0
-9 71 -72 0
-1 12 -73 0
1 -12 -73 0
-1 -12 73 0
1 12 73 0
74 72 0
74 73 0
-72 -73 -74 0
-14 -18 0
-6 -40 0
-43 29 -33 0
-31 -14 -19 0
-47 -28 41 30 -2 17 0
36 -9 54 -56 -69 12 0
-56 2 -39 -13 0
39 54 0
41 62 20 0
10 21 5 0
41 40 -74 21 60 0
-7 41 21 29 0
-38 -47 0
-12 11 29 -10 0
-33 -70 0
14 34 12 -9 50 6 0
3 40 0
-8 52 14 -9 0
-66 35 72 37 -23 4 0
-34 -69 -48 0
31 -52 0
74 56 -68 0
-28 -68 64 0
15 -18 -30 54 0
28 -73 -58 -26 0
26 66 64 67 0
-49 -40 56 -22 0
71 -30 20 0
-67 59 -63 -39 6 0
38 69 45 52 0
14 -58 0
-36 23 67 -16 -60 0
17 -33 -58 30 0
-23 -49 -3 0
74 -3 16 -20 0
12 42 15 -51 -73 0
-11 61 -40 -64 65 0
-34 -65 -37 0
-34 63 -54 0
-25 -47 -33 56 -68 0
14 -65 -67 0
-71 -14 -23 -33 -26 60 0
-48 68 -44 -49 -21 -39 0
64 -73 -4 0
-29 6 -41 -70 0
-23 57 -9 26 66 0
5 43 -1 0
-1 -29 -37 11 0
-47 43 -27 -50 28 0
-43 49 -9 39 18 0
13 6 0
-61 -2 -12 0
29 -67 2 0
18 -69 0
45 3 -26 22 6 -57 0
-27 42 0
-36 39 5 -13 -57 0
-43 10 -33 3 57 63 0
30 -1 0
19 -66 0
-20 -14 0
-49 -42 -26 23 62 -41 0
-53 27 28 -38 9 0
61 -53 47 67 0
-25 -13 -20 -32 0
74 0
